k-points for bandstructure L-Γ-X-W-U,K-L-W-X-U,K-Γ
 100
line
reciprocal
  0.50000  0.50000  0.50000    1 # L
  0.00000  0.00000  0.00000    1 # Γ

  0.00000  0.00000  0.00000    1 # Γ
  0.50000  0.00000  0.50000    1 # X

  0.50000  0.00000  0.50000    1 # X                  
  0.62500  0.25000  0.62500    1 # U

  0.37500  0.37500  0.75000    1 # K
  0.00000  0.00000  0.00000    1 # Γ

